c FILE /home/rafael/Documents/HappySet/MIHS/inputs/happygen/output/graph_d_regular_k4_p0.4_v100_20241127_084032.txt
c SOURCE This is a d-regular graph formed for the happy graph colouring problem.
c DESCRIPTION It was generated using the problem generator of Rhyd Lewis
c
c GRAPH STATS
c Seed                             = 1839989606
c Number of Nodes                  = 100
c Number of colours k              = 4
c Number of pre-assignments        = 40
c Degree of all vertices           = 6
c Density                          = 0.0606061
c 
c The degrees of nodes 1 to 100, respectively, are as follows 
c [6, 6, 6, 6, 6, 6, 6, 6, 6, 6, 6, 6, 6, 6, 6, 6, 6, 6, 6, 6, 6, 6, 6, 6, 6, 6, 
c  6, 6, 6, 6, 6, 6, 6, 6, 6, 6, 6, 6, 6, 6, 6, 6, 6, 6, 6, 6, 6, 6, 6, 6, 6, 
c  6, 6, 6, 6, 6, 6, 6, 6, 6, 6, 6, 6, 6, 6, 6, 6, 6, 6, 6, 6, 6, 6, 6, 6, 6, 
c  6, 6, 6, 6, 6, 6, 6, 6, 6, 6, 6, 6, 6, 6, 6, 6, 6, 6, 6, 6, 6, 6, 6, 6] 
c  
p edge 100 300 4
e 1 12
e 1 26
e 1 43
e 1 63
e 1 71
e 1 99
e 2 7
e 2 19
e 2 20
e 2 23
e 2 67
e 2 84
e 3 10
e 3 29
e 3 33
e 3 36
e 3 63
e 3 84
e 4 14
e 4 28
e 4 41
e 4 52
e 4 68
e 4 100
e 5 48
e 5 62
e 5 72
e 5 89
e 5 91
e 5 96
e 6 9
e 6 10
e 6 18
e 6 28
e 6 50
e 6 74
e 7 16
e 7 29
e 7 42
e 7 50
e 7 77
e 8 25
e 8 26
e 8 51
e 8 85
e 8 87
e 8 90
e 9 13
e 9 14
e 9 84
e 9 90
e 9 95
e 10 24
e 10 55
e 10 94
e 10 97
e 11 34
e 11 59
e 11 66
e 11 77
e 11 87
e 11 92
e 12 32
e 12 36
e 12 56
e 12 61
e 12 98
e 13 26
e 13 30
e 13 47
e 13 57
e 13 59
e 14 31
e 14 49
e 14 95
e 14 98
e 15 52
e 15 72
e 15 77
e 15 84
e 15 89
e 15 90
e 16 19
e 16 20
e 16 87
e 16 92
e 16 97
e 17 31
e 17 39
e 17 52
e 17 55
e 17 67
e 17 87
e 18 31
e 18 41
e 18 44
e 18 85
e 18 91
e 19 44
e 19 55
e 19 57
e 19 68
e 20 25
e 20 69
e 20 86
e 20 92
e 21 27
e 21 31
e 21 53
e 21 64
e 21 66
e 21 93
e 22 43
e 22 56
e 22 68
e 22 85
e 22 95
e 22 98
e 23 54
e 23 58
e 23 62
e 23 89
e 23 90
e 24 43
e 24 46
e 24 65
e 24 81
e 24 86
e 25 42
e 25 47
e 25 51
e 25 78
e 26 52
e 26 65
e 26 82
e 27 28
e 27 45
e 27 70
e 27 73
e 27 76
e 28 63
e 28 69
e 28 74
e 29 33
e 29 60
e 29 72
e 29 73
e 30 31
e 30 56
e 30 74
e 30 81
e 30 92
e 31 76
e 32 37
e 32 42
e 32 61
e 32 62
e 32 88
e 33 35
e 33 71
e 33 78
e 33 94
e 34 42
e 34 52
e 34 91
e 34 93
e 34 100
e 35 48
e 35 69
e 35 72
e 35 83
e 35 96
e 36 58
e 36 70
e 36 71
e 36 72
e 37 39
e 37 75
e 37 85
e 37 89
e 37 100
e 38 45
e 38 48
e 38 54
e 38 67
e 38 69
e 38 73
e 39 40
e 39 51
e 39 71
e 39 91
e 40 52
e 40 60
e 40 67
e 40 73
e 40 88
e 41 45
e 41 62
e 41 82
e 41 100
e 42 48
e 42 87
e 43 44
e 43 57
e 43 78
e 44 47
e 44 88
e 44 93
e 45 56
e 45 70
e 45 91
e 46 53
e 46 65
e 46 73
e 46 86
e 46 92
e 47 81
e 47 83
e 47 98
e 48 62
e 48 79
e 49 54
e 49 55
e 49 71
e 49 76
e 49 78
e 50 58
e 50 80
e 50 82
e 50 94
e 51 63
e 51 81
e 51 82
e 53 70
e 53 73
e 53 76
e 53 97
e 54 90
e 54 94
e 54 96
e 55 66
e 55 82
e 56 87
e 56 95
e 57 83
e 57 88
e 57 89
e 58 63
e 58 74
e 58 88
e 59 68
e 59 78
e 59 89
e 59 92
e 60 71
e 60 72
e 60 79
e 60 94
e 61 65
e 61 91
e 61 96
e 61 98
e 62 75
e 63 99
e 64 80
e 64 85
e 64 94
e 64 97
e 64 98
e 65 79
e 65 86
e 66 75
e 66 77
e 66 93
e 67 74
e 67 78
e 68 69
e 68 82
e 69 81
e 70 80
e 70 96
e 74 99
e 75 83
e 75 96
e 75 100
e 76 77
e 76 93
e 77 95
e 79 85
e 79 86
e 79 99
e 80 84
e 80 88
e 80 95
e 81 83
e 83 97
e 84 90
e 86 99
e 93 97
e 99 100
n 1 1
n 3 3
n 11 3
n 13 3
n 17 3
n 21 3
n 22 4
n 23 2
n 24 2
n 28 3
n 30 3
n 37 4
n 38 2
n 40 1
n 42 2
n 48 2
n 51 2
n 54 2
n 55 3
n 61 2
n 65 2
n 66 3
n 68 4
n 70 1
n 72 1
n 74 3
n 76 3
n 77 3
n 78 1
n 79 2
n 80 1
n 83 1
n 86 2
n 88 1
n 90 2
n 91 2
n 92 3
n 94 2
n 97 1
n 100 4
